
List of user-set options:

                                    Name   Value                used
                           compl_inf_tol = 1                     yes
                         constr_viol_tol = 1                     yes
                            dual_inf_tol = 1000                  yes
                           linear_solver = ma97                  yes
                              ma86_small = 1e-30                  no
                                  ma86_u = 0.0001                 no
                              ma97_order = best                  yes
                              ma97_small = 1e-30                 yes
                            ma97_switch1 = at_start              yes
                            ma97_switch2 = od_hd_reuse           yes
                                  ma97_u = 1e-06                 yes
                               ma97_umax = 0.5                   yes
                                max_iter = 1000                  yes
                    max_refinement_steps = 20                    yes
                    min_refinement_steps = 5                     yes
                                 mu_init = 1e-06                 yes
           mu_superlinear_decrease_power = 1.25                  yes
                   nlp_scaling_min_value = 1e-08                 yes
                        option_file_name = Preset_Case:_734_NCP.opt  yes
                             output_file = ./tmp/Preset_Case:_734_NCP.output  yes
                      print_user_options = yes                   yes
        required_infeasibility_reduction = 1                      no
                                     tol = 1e-08                 yes
                   warm_start_bound_frac = 1e-20                 yes
                   warm_start_bound_push = 1e-20                 yes
                   warm_start_init_point = yes                   yes
              warm_start_mult_bound_push = 1e-20                 yes
                warm_start_mult_init_max = 1e+40                 yes
             warm_start_slack_bound_frac = 1e-20                 yes
             warm_start_slack_bound_push = 1e-20                 yes

******************************************************************************
This program contains Ipopt, a library for large-scale nonlinear optimization.
 Ipopt is released as open source code under the Eclipse Public License (EPL).
         For more information visit http://projects.coin-or.org/Ipopt
******************************************************************************

This is Ipopt version 3.12.10, running with linear solver ma97.

Number of nonzeros in equality constraint Jacobian...:   117167
Number of nonzeros in inequality constraint Jacobian.:      213
Number of nonzeros in Lagrangian Hessian.............:    47513

Total number of variables............................:    29977
                     variables with only lower bounds:    11312
                variables with lower and upper bounds:    15135
                     variables with only upper bounds:        0
Total number of equality constraints.................:    29864
Total number of inequality constraints...............:       25
        inequality constraints with only lower bounds:        4
   inequality constraints with lower and upper bounds:        0
        inequality constraints with only upper bounds:       21

iter    objective    inf_pr   inf_du lg(mu)  ||d||  lg(rg) alpha_du alpha_pr  ls
   0 -1.6634284e-01 3.03e-01 2.00e+00  -6.0 0.00e+00    -  0.00e+00 0.00e+00   0
In iteration 0, 9 Slacks too small, adjusting variable bounds
   1 -1.6634284e-01 3.03e-01 2.73e+02  -6.0 1.08e+10    -  2.72e-14 6.45e-19h  1
   2 -1.6634089e-01 3.03e-01 2.74e+02  -6.0 2.74e+02    -  1.26e-07 2.14e-05f  1
   3 -1.6634087e-01 3.03e-01 2.75e+02  -6.0 1.45e+02    -  1.77e-02 3.56e-07h  2
   4 -1.6633484e-01 3.03e-01 2.75e+02  -6.0 2.72e+02    -  1.05e-04 6.65e-05h  1
   5 -1.6586592e-01 3.01e-01 2.73e+02  -6.0 2.14e+02    -  4.62e-03 6.59e-03h  1
   6 -1.6474059e-01 2.97e-01 2.68e+02  -6.0 3.11e+02    -  5.79e-04 1.20e-02h  2
   7 -1.6372293e-01 2.93e-01 2.65e+02  -6.0 2.34e+02    -  7.66e-03 1.23e-02h  2
   8 -1.6285711e-01 2.90e-01 2.62e+02  -6.0 2.36e+02    -  1.24e-02 1.07e-02h  3
   9 -1.6210271e-01 2.87e-01 2.60e+02  -6.0 2.39e+02    -  1.26e-02 9.47e-03h  4
iter    objective    inf_pr   inf_du lg(mu)  ||d||  lg(rg) alpha_du alpha_pr  ls
  10 -1.6153436e-01 2.85e-01 2.58e+02  -6.0 2.41e+02    -  1.14e-02 7.24e-03h  5
  11 -1.6096310e-01 2.83e-01 2.65e+02  -6.0 2.42e+02    -  5.28e-02 7.38e-03h  5
  12 -1.6036429e-01 2.81e-01 2.66e+02  -6.0 2.48e+02    -  2.12e-02 7.71e-03h  5
  13 -1.5976244e-01 2.79e-01 2.76e+02  -6.0 2.49e+02    -  6.83e-02 7.83e-03h  5
  14 -1.5910604e-01 2.77e-01 2.78e+02  -6.0 2.55e+02    -  3.03e-02 8.50e-03h  5
  15 -1.5843195e-01 2.74e-01 3.05e+02  -6.0 2.57e+02    -  1.43e-01 8.81e-03h  5
  16 -1.4518413e-01 1.03e+00 1.24e+03  -6.0 2.68e+02    -  7.33e-02 1.69e-01w  1
  17 -1.4518399e-01 1.03e+00 3.07e+05  -6.0 2.30e+02    -  7.71e-02 2.35e-06w  1
  18 -1.4303599e-01 1.02e+00 5.25e+05  -6.0 2.47e+02    -  6.29e-02 3.18e-02w  1
  19 -1.5760396e-01 2.71e-01 3.18e+02  -6.0 4.59e+02    -  7.33e-02 1.05e-02h  4
iter    objective    inf_pr   inf_du lg(mu)  ||d||  lg(rg) alpha_du alpha_pr  ls
  20 -1.5675181e-01 2.68e-01 3.49e+02  -6.0 2.71e+02    -  1.33e-01 1.09e-02h  5
  21 -1.5621075e-01 2.66e-01 3.63e+02  -6.0 2.74e+02    -  6.09e-02 7.27e-03h  5
  22 -1.5538476e-01 2.64e-01 4.00e+02  -6.0 2.82e+02    -  1.26e-01 1.04e-02h  5
  23 -1.5465611e-01 2.61e-01 4.04e+02  -6.0 2.89e+02    -  2.93e-02 9.18e-03h  4
  24 -1.5401882e-01 2.59e-01 4.52e+02  -6.0 2.87e+02    -  1.33e-01 8.12e-03h  4
  25 -1.5329411e-01 2.57e-01 5.11e+02  -6.0 2.99e+02    -  1.50e-01 9.06e-03h  3
  26 -1.5242226e-01 2.54e-01 5.72e+02  -6.0 3.12e+02    -  1.46e-01 1.08e-02h  2
  27 -1.5157439e-01 2.51e-01 6.47e+02  -6.0 3.24e+02    -  1.63e-01 1.05e-02h  2
  28 -1.5098269e-01 2.49e-01 7.30e+02  -6.0 3.41e+02    -  1.64e-01 7.49e-03h  3
  29 -1.4982369e-01 2.46e-01 7.56e+02  -6.0 3.64e+02    -  8.01e-02 1.52e-02w  1
iter    objective    inf_pr   inf_du lg(mu)  ||d||  lg(rg) alpha_du alpha_pr  ls
  30 -1.3426795e-01 1.22e+00 1.37e+03  -6.0 3.65e+02    -  2.65e-01 2.13e-01w  1
  31 -1.3423305e-01 1.22e+00 1.83e+05  -6.0 6.38e+02    -  1.13e-01 7.12e-04w  1
  32 -1.5040319e-01 2.47e-01 7.66e+02  -6.0 6.61e+02    -  8.01e-02 7.62e-03h  1
  33 -1.4973718e-01 2.45e-01 9.00e+02  -6.0 3.73e+02    -  2.60e-01 9.02e-03h  2
  34 -1.4936631e-01 2.44e-01 9.24e+02  -6.0 4.26e+02    -  6.11e-02 5.37e-03h  6
  35 -1.4907578e-01 2.43e-01 1.33e+03  -6.0 4.33e+02    -  2.68e-01 4.17e-03h  7
  36 -1.4867080e-01 2.41e-01 1.34e+03  -6.0 5.03e+02    -  9.99e-02 6.05e-03h  7
  37 -1.4827905e-01 2.40e-01 1.30e+03  -6.0 5.22e+02    -  3.78e-01 5.95e-03h  7
  38 -1.4798795e-01 2.39e-01 1.29e+03  -6.0 7.00e+02    -  7.16e-02 5.28e-03h  7
  39 -1.4772081e-01 2.37e-01 1.48e+03  -6.0 7.54e+02    -  2.59e-01 5.15e-03h  7
iter    objective    inf_pr   inf_du lg(mu)  ||d||  lg(rg) alpha_du alpha_pr  ls
  40 -1.4749053e-01 2.36e-01 1.74e+03  -6.0 2.15e+02  -4.0 9.20e-02 4.27e-03h  7
  41 -1.4733941e-01 2.35e-01 1.98e+03  -6.0 4.88e+02  -4.5 9.78e-02 4.88e-03h  6
  42 -1.4687103e-01 2.33e-01 2.60e+03  -6.0 2.44e+02  -4.1 1.82e-01 9.30e-03h  6
  43 -1.3330643e-01 4.09e+00 6.27e+03  -6.0 1.23e+02  -3.6 3.23e-01 2.35e-01w  1
  44 -1.3132705e-01 3.96e+00 8.22e+04  -6.0 9.52e+01  -3.2 1.44e-01 4.00e-02w  1
  45 -1.2642498e-01 3.77e+00 3.39e+05  -6.0 7.28e+01  -2.8 2.83e-01 1.34e-01w  1
  46 -1.4644713e-01 2.31e-01 4.39e+03  -6.0 1.32e+02  -3.3 3.23e-01 7.34e-03h  5
  47 -1.4620015e-01 2.30e-01 4.98e+03  -6.0 1.64e+02  -3.7 9.10e-02 4.66e-03h  7
  48 -1.4580621e-01 2.29e-01 8.41e+03  -6.0 9.40e+01  -3.3 3.28e-01 6.51e-03h  6
  49 -1.4564946e-01 2.28e-01 9.24e+03  -6.0 2.11e+02  -3.8 9.35e-02 3.42e-03h  4
iter    objective    inf_pr   inf_du lg(mu)  ||d||  lg(rg) alpha_du alpha_pr  ls
  50 -1.4540155e-01 2.27e-01 1.04e+04  -6.0 1.06e+02  -3.4 8.43e-02 4.17e-03h  7
  51 -1.4534207e-01 2.27e-01 1.23e+04  -6.0 2.30e+02  -3.8 1.85e-01 1.72e-03h  1
  52 -1.4508421e-01 2.26e-01 1.22e+04  -6.0 1.20e+02  -3.4 1.34e-04 4.37e-03h  7
  53 -1.4508391e-01 2.26e-01 1.39e+04  -6.0 2.95e+02  -3.9 1.44e-01 3.47e-05h  1
  54 -1.4481771e-01 2.25e-01 1.40e+04  -6.0 1.31e+02  -3.5 1.11e-02 4.42e-03h  7
  55 -1.4484342e-01 2.25e-01 1.42e+04  -6.0 2.92e+03  -3.9 5.68e-03 5.13e-05h  8
  56 -1.4462806e-01 2.24e-01 1.73e+04  -6.0 1.40e+02  -3.5 1.85e-01 3.55e-03h  4
  57 -1.4421395e-01 2.22e-01 1.73e+04  -6.0 9.81e+01  -3.1 8.75e-03 6.38e-03h  6
  58 -1.4415796e-01 2.22e-01 2.52e+04  -6.0 1.56e+02  -3.6 4.05e-01 9.60e-04h  1
  59 -1.4392411e-01 2.21e-01 2.50e+04  -6.0 1.02e+02  -3.1 2.73e-04 3.61e-03h  7
iter    objective    inf_pr   inf_du lg(mu)  ||d||  lg(rg) alpha_du alpha_pr  ls
  60 -1.4392356e-01 2.21e-01 3.04e+04  -6.0 1.94e+02  -3.6 2.39e-01 1.12e-05h  1
  61 -1.4367667e-01 2.21e-01 3.10e+04  -6.0 1.05e+02  -3.2 2.24e-02 3.80e-03h  7
  62 -1.4363153e-01 2.20e-01 3.41e+04  -6.0 3.47e+02  -3.7 1.06e-01 1.32e-03h  7
  63 -1.4336799e-01 2.19e-01 5.05e+04  -6.0 1.16e+02  -3.2 3.74e-01 4.00e-03h  7
  64 -1.4337599e-01 2.19e-01 5.22e+04  -6.0 4.55e+02  -3.7 4.17e-02 5.40e-04h  7
  65 -1.4307486e-01 2.18e-01 5.32e+04  -6.0 1.45e+02  -3.3 2.69e-02 4.60e-03h  7
  66 -1.4261838e-01 2.17e-01 7.96e+04  -6.0 9.60e+01  -2.9 3.05e-01 6.28e-03h  6
  67 -1.4243055e-01 2.16e-01 8.84e+04  -6.0 1.74e+02  -3.3 1.79e-01 3.06e-03h  7
  68 -1.4213796e-01 2.15e-01 8.94e+04  -6.0 1.06e+02  -2.9 1.76e-02 4.00e-03h  7
  69 -1.4198163e-01 2.15e-01 1.19e+05  -6.0 1.96e+02  -3.4 5.33e-01 2.79e-03h  6
iter    objective    inf_pr   inf_du lg(mu)  ||d||  lg(rg) alpha_du alpha_pr  ls
  70 -1.4167714e-01 2.14e-01 1.21e+05  -6.0 1.20e+02  -3.0 2.38e-02 4.14e-03h  7
  71 -1.3902146e-01 2.77e+00 1.23e+05  -6.0 2.45e+02  -3.4 2.02e-01 6.51e-02w  1
  72 -1.3161931e-01 1.04e+01 1.37e+05  -6.0 1.32e+02  -3.0 3.17e-01 1.87e-01w  1
  73 -1.3038966e-01 9.76e+00 1.31e+05  -6.0 2.30e+02  -3.5 8.81e-02 7.07e-02w  1
  74 -1.4163564e-01 2.14e-01 1.36e+05  -6.0 1.06e+03  -4.0 2.02e-01 1.02e-03h  6
  75 -1.4164144e-01 2.14e-01 1.41e+05  -6.0 4.79e+02  -3.5 4.81e-02 3.45e-04h  8
  76 -1.4129954e-01 2.13e-01 1.47e+05  -6.0 1.53e+02  -3.1 6.78e-02 4.79e-03h  7
  77 -1.4103888e-01 2.12e-01 2.87e+05  -6.0 9.68e+01  -2.7 2.93e-01 3.43e-03h  7
  78 -1.4082940e-01 2.11e-01 3.78e+05  -6.0 1.86e+02  -3.2 2.37e-01 3.09e-03h  8
  79 -1.4046464e-01 2.10e-01 4.01e+05  -6.0 1.10e+02  -2.7 3.15e-02 4.67e-03h  7
iter    objective    inf_pr   inf_du lg(mu)  ||d||  lg(rg) alpha_du alpha_pr  ls
  80 -1.4026256e-01 2.10e-01 6.64e+05  -6.0 2.14e+02  -3.2 5.75e-01 3.31e-03h  6
  81 -1.3984901e-01 2.08e-01 7.12e+05  -6.0 1.31e+02  -2.8 4.43e-02 5.32e-03h  7
  82 -1.3980962e-01 2.08e-01 8.53e+05  -6.0 2.70e+02  -3.3 2.15e-01 9.14e-04h  7
  83 -1.3935462e-01 2.07e-01 9.93e+05  -6.0 1.45e+02  -2.8 1.07e-01 5.95e-03h  7
  84 -1.3976722e-01 1.11e+01 9.48e+05  -6.0 4.32e+02  -3.3 5.40e-02 4.86e-02w  1
  85 -1.3976720e-01 1.11e+01 9.36e+05  -6.0 5.40e+02  -3.8 1.05e-01 2.66e-07w  1
  86 -1.3946357e-01 1.10e+01 9.57e+05  -6.0 3.24e+02  -3.4 3.25e-01 5.31e-03w  1
  87 -1.3935784e-01 2.07e-01 1.02e+06  -6.0 7.60e+02  -3.8 5.40e-02 3.80e-04h  7
  88 -1.3897989e-01 2.06e-01 1.36e+06  -6.0 9.94e+01  -2.5 1.53e-01 4.88e-03h  7
  89 -1.3872505e-01 2.05e-01 1.65e+06  -6.0 1.95e+02  -3.0 2.45e-01 3.62e-03h  6
iter    objective    inf_pr   inf_du lg(mu)  ||d||  lg(rg) alpha_du alpha_pr  ls
  90 -1.3823976e-01 2.04e-01 1.82e+06  -6.0 1.16e+02  -2.6 7.88e-02 6.28e-03h  7
  91 -1.3804431e-01 2.03e-01 2.49e+06  -6.0 2.27e+02  -3.0 5.99e-01 3.13e-03h  5
  92 -1.3776454e-01 2.02e-01 2.88e+06  -6.0 1.41e+02  -2.6 1.42e-01 3.68e-03h  8
  93 -1.3772240e-01 2.02e-01 3.08e+06  -6.0 3.07e+02  -3.1 2.01e-01 1.15e-03h  6
  94 -1.3743079e-01 2.01e-01 4.26e+06  -6.0 1.62e+02  -2.7 4.22e-01 3.88e-03h  8
  95 -1.3745099e-01 2.01e-01 4.23e+06  -6.0 5.81e+02  -3.1 3.41e-02 5.30e-04h  7
  96 -1.3716692e-01 2.01e-01 5.81e+06  -6.0 1.98e+02  -2.7 6.07e-01 3.94e-03h  6
  97 -1.4039052e-01 9.20e+00 5.82e+06  -6.0 1.61e+04  -3.2 8.17e-04 1.06e-03w  1
  98 -1.4039052e-01 9.20e+00 5.72e+06  -6.0 5.35e+02  -2.8 7.42e-02 4.85e-08w  1
  99 -1.3835996e-01 9.00e+00 5.55e+06  -6.0 4.59e+02  -3.3 7.41e-02 2.49e-02w  1
iter    objective    inf_pr   inf_du lg(mu)  ||d||  lg(rg) alpha_du alpha_pr  ls
 100 -1.3719210e-01 2.01e-01 5.75e+06  -6.0 1.08e+03  -3.7 8.17e-04 8.29e-06h  7
 101 -1.3690487e-01 2.00e-01 7.46e+06  -6.0 1.46e+02  -2.4 3.63e-01 3.72e-03h  8
 102 -1.3688428e-01 2.00e-01 7.57e+06  -6.0 3.31e+02  -2.9 1.33e-01 4.55e-04h  7
 103 -1.3659857e-01 1.99e-01 1.17e+07  -6.0 1.79e+02  -2.5 9.50e-01 3.85e-03h  8
 104 -1.3659668e-01 1.99e-01 1.16e+07  -6.0 4.60e+02  -2.9 5.74e-02 1.51e-04h  8
 105 -1.3647379e-01 1.99e-01 1.37e+07  -6.0 2.48e+02  -2.5 5.27e-01 1.89e-03h  6
 106 -1.3647840e-01 1.98e-01 1.35e+07  -6.0 5.51e+02  -3.0 4.09e-02 2.68e-04h  7
 107 -1.3647670e-01 1.98e-01 1.73e+07  -6.0 3.03e+02  -2.6 9.99e-01 3.12e-05h 11
 108 -1.3648052e-01 1.98e-01 1.72e+07  -6.0 7.12e+02  -3.0 3.14e-02 1.01e-04h  9
 109 -1.3647986e-01 1.98e-01 1.81e+07  -6.0 4.00e+02  -2.6 2.32e-01 1.51e-05h 12
iter    objective    inf_pr   inf_du lg(mu)  ||d||  lg(rg) alpha_du alpha_pr  ls
 110 -1.3793039e-01 9.13e+00 1.77e+07  -6.0 8.15e+02  -3.1 2.58e-02 2.12e-02w  1
 111 -1.3793025e-01 9.13e+00 1.72e+07  -6.0 1.71e+03  -3.6 8.59e-02 1.97e-06w  1
 112 -1.3308816e-01 1.73e+01 1.66e+07  -6.0 4.45e+03  -4.0 3.67e-02 3.46e-02w  1
 113 -1.3648270e-01 1.98e-01 1.79e+07  -6.0 2.08e+03  -3.6 2.58e-02 4.15e-05h  9
 114 -1.3869753e-01 9.26e+00 1.76e+07  -6.0 1.91e+03  -3.2 1.81e-02 8.96e-03h  1
 115r-1.3869753e-01 9.26e+00 1.00e+03   0.6 0.00e+00  -3.7 0.00e+00 4.12e-07R  5
 116r-1.3876960e-01 9.26e+00 1.04e+03   0.6 1.99e+04    -  1.47e-06 8.98e-07f  1
 117 -1.3872988e-01 9.25e+00 5.46e+04  -6.0 1.87e+02    -  3.48e-02 1.02e-03h  1
 118 -1.3549486e-01 8.42e+00 4.78e+06  -6.0 1.81e+02    -  1.03e-03 8.72e-02h  1
 119 -1.3297768e-01 7.81e+00 4.44e+06  -6.0 1.66e+02    -  1.31e-01 7.07e-02h  1
iter    objective    inf_pr   inf_du lg(mu)  ||d||  lg(rg) alpha_du alpha_pr  ls
 120 -1.3214439e-01 7.63e+00 4.33e+06  -6.0 1.55e+02    -  1.08e-01 2.38e-02h  4
 121 -1.3176261e-01 7.54e+00 4.29e+06  -6.0 1.46e+02    -  1.38e-01 1.07e-02h  5
 122 -1.3157286e-01 7.50e+00 4.26e+06  -6.0 1.45e+02    -  1.41e-01 5.35e-03h  6
 123 -1.3152491e-01 7.49e+00 4.26e+06  -6.0 1.46e+02    -  3.21e-02 1.33e-03h  8
 124 -1.3150079e-01 7.49e+00 4.25e+06  -6.0 1.46e+02    -  1.56e-01 6.66e-04h  9
 125 -1.2495924e-01 6.08e+00 3.50e+06  -6.0 1.51e+02    -  4.46e-02 1.78e-01h  1
 126 -1.2476273e-01 6.04e+00 3.47e+06  -6.0 2.12e+02    -  1.25e-01 8.00e-03h  1
 127 -1.2461548e-01 6.00e+00 3.45e+06  -6.0 2.13e+02    -  1.87e-01 5.91e-03h  1
 128 -1.1731095e-01 4.39e+00 2.52e+06  -6.0 2.27e+02    -  2.38e-01 2.68e-01h  1
 129 -1.1705345e-01 4.34e+00 2.49e+06  -6.0 2.15e+02    -  1.76e-01 1.23e-02h  1
iter    objective    inf_pr   inf_du lg(mu)  ||d||  lg(rg) alpha_du alpha_pr  ls
 130 -1.1598730e-01 4.08e+00 2.80e+06  -6.0 1.99e+02    -  2.60e-01 5.92e-02h  1
 131 -1.1247818e-01 3.11e+00 2.12e+06  -6.0 1.93e+02    -  2.30e-01 2.20e-01h  1
 132 -1.1183105e-01 2.57e+00 3.51e+06  -6.0 2.27e+02    -  3.12e-01 1.82e-01h  1
 133 -1.1183502e-01 2.57e+00 5.21e+06  -6.0 9.85e+01    -  1.78e-01 1.48e-03h  1
 134 -1.1309868e-01 2.05e+00 2.34e+06  -6.0 9.83e+01    -  7.41e-03 2.00e-01h  1
 135 -1.1594852e-01 2.34e+00 3.11e+06  -6.0 8.85e+01    -  6.40e-03 3.98e-01h  1
 136 -1.1764712e-01 2.18e+00 2.50e+06  -6.0 2.25e+02    -  6.09e-02 1.94e-01h  1
 137 -1.2311859e-01 1.40e+00 1.13e+06  -6.0 1.67e+02    -  4.24e-03 5.52e-01h  1
 138 -1.2325746e-01 1.39e+00 1.12e+06  -6.0 3.03e+02    -  1.34e-05 1.03e-02h  1
 139 -1.2863094e-01 7.01e-01 6.55e+05  -6.0 3.16e+02    -  4.60e-03 4.18e-01f  1
iter    objective    inf_pr   inf_du lg(mu)  ||d||  lg(rg) alpha_du alpha_pr  ls
 140 -1.2863097e-01 7.01e-01 6.55e+05  -6.0 9.51e+01  -2.3 1.71e-04 1.15e-05h  1
 141 -1.2859555e-01 6.82e-01 6.37e+05  -6.0 9.98e+00  -1.9 2.22e-03 2.75e-02h  1
 142 -1.2883412e-01 6.36e-01 5.94e+05  -6.0 7.78e+01    -  3.54e-02 6.76e-02h  1
 143 -1.3096120e-01 2.31e-01 1.80e+05  -6.0 7.02e+01    -  2.54e-02 6.98e-01h  1
 144 -1.3194096e-01 1.32e+00 2.82e+04  -6.0 2.37e+01    -  3.14e-01 1.00e+00f  1
 145 -1.3194179e-01 1.19e+00 2.54e+04  -6.0 2.71e+00  -2.4 1.50e-02 9.84e-02h  1
 146 -1.3193742e-01 1.09e+00 2.32e+04  -6.0 1.84e+00  -2.0 1.52e-01 8.57e-02h  1
 147 -1.3193096e-01 8.51e-01 1.76e+04  -6.0 4.26e+00  -2.4 1.38e-03 2.16e-01h  1
 148 -1.3193550e-01 8.32e-01 1.72e+04  -6.0 1.21e+01    -  5.14e-05 2.27e-02h  1
 149 -1.3208365e-01 8.31e-01 1.72e+04  -6.0 1.03e+03    -  4.81e-02 9.64e-04f  1
iter    objective    inf_pr   inf_du lg(mu)  ||d||  lg(rg) alpha_du alpha_pr  ls
 150 -1.3256021e-01 4.54e-02 1.27e+04  -6.0 1.13e+01    -  3.53e-05 1.00e+00f  1
 151 -1.3268049e-01 1.85e-02 5.15e+03  -6.0 2.12e+00    -  9.70e-01 5.94e-01h  1
 152 -1.3757422e-01 2.67e-01 5.09e+01  -6.0 6.88e+01    -  3.33e-01 1.00e+00f  1
 153 -1.4134818e-01 2.32e-01 3.12e+01  -6.0 1.65e+02    -  4.91e-01 3.07e-01h  1
 154 -1.4664423e-01 2.71e-01 1.64e+01  -6.0 3.62e+02    -  2.79e-01 2.42e-01h  1
 155 -1.5386522e-01 8.52e-01 7.03e+01  -6.0 5.39e+02    -  7.17e-04 2.85e-01h  1
 156 -1.5488615e-01 8.71e-01 6.26e+01  -6.0 1.81e+02    -  1.85e-01 1.08e-01h  1
 157 -1.5801030e-01 1.78e+00 4.69e+01  -6.0 2.76e+02    -  4.53e-01 2.50e-01h  1
 158 -1.6076216e-01 2.81e+00 3.83e+01  -6.0 7.06e+02    -  3.51e-01 1.82e-01h  1
 159 -1.6249128e-01 3.19e+00 3.42e+01  -6.0 9.98e+02    -  7.54e-02 1.07e-01h  1
iter    objective    inf_pr   inf_du lg(mu)  ||d||  lg(rg) alpha_du alpha_pr  ls
 160 -1.6519633e-01 4.11e+00 2.89e+01  -6.0 7.89e+02    -  1.40e-01 1.56e-01h  1
 161 -1.6518205e-01 4.02e+00 2.82e+01  -6.0 1.26e+00  -2.9 1.07e-02 2.26e-02h  1
 162 -1.6513822e-01 3.82e+00 2.68e+01  -6.0 9.02e-01  -3.4 4.43e-02 5.00e-02h  1
 163 -1.6510033e-01 3.64e+00 2.55e+01  -6.0 3.52e+00  -3.9 8.08e-02 4.83e-02h  1
 164 -1.6484339e-01 1.85e+00 1.30e+01  -6.0 3.30e+00  -4.3 1.31e-01 4.91e-01h  1
 165 -1.6492925e-01 5.30e-01 7.11e+00  -6.0 2.40e+00  -4.8 1.50e-01 7.26e-01h  1
 166 -1.6513082e-01 4.05e-01 7.59e+00  -6.0 2.86e+00  -5.3 9.50e-01 2.67e-01h  1
 167 -1.6537939e-01 3.70e-01 8.81e+00  -6.0 6.32e+00  -5.8 3.19e-01 1.96e-01h  1
 168 -1.6586249e-01 5.56e-01 1.17e+01  -6.0 1.15e+01  -6.3 9.93e-01 2.47e-01h  1
 169 -1.6626621e-01 6.63e-01 1.89e+01  -6.0 3.81e+01  -6.7 8.71e-01 1.33e-01h  1
iter    objective    inf_pr   inf_du lg(mu)  ||d||  lg(rg) alpha_du alpha_pr  ls
 170 -1.6678561e-01 7.04e-01 1.94e+01  -6.0 1.15e+02  -7.2 1.00e+00 1.13e-01h  1
 171 -1.6884353e-01 9.04e-01 2.36e+01  -6.0 3.05e+02  -7.7 1.00e+00 2.49e-01h  1
 172 -1.7206111e-01 1.16e+00 2.02e+00  -6.0 1.07e+02  -7.3 1.00e+00 1.00e+00h  1
 173 -1.7259478e-01 1.37e+00 1.81e+01  -6.0 4.85e+03  -7.7 1.48e-01 9.88e-03h  1
 174 -1.7289984e-01 1.27e+00 1.62e+01  -6.0 1.08e+02  -7.3 1.07e-01 9.06e-02h  1
 175 -1.7350299e-01 1.19e+00 3.64e+01  -6.0 2.92e+02  -7.8 6.14e-01 8.69e-02h  1
 176 -1.7617608e-01 6.40e-01 2.20e+01  -6.0 1.04e+02  -7.4 2.53e-01 1.00e+00h  1
 177 -1.7791689e-01 1.55e+00 2.33e+01  -6.0 4.16e+02  -7.8 3.10e-01 1.97e-01h  1
 178 -1.7898054e-01 1.56e+00 5.04e+02  -6.0 1.27e+02  -7.4 1.00e+00 3.51e-01h  1
 179 -1.8562468e-01 2.39e+00 6.45e+01  -6.0 3.49e+02  -7.9 6.31e-01 1.00e+00h  1
iter    objective    inf_pr   inf_du lg(mu)  ||d||  lg(rg) alpha_du alpha_pr  ls
 180 -1.8869222e-01 2.97e+00 9.32e+01  -6.0 1.08e+03  -8.4 2.40e-01 2.21e-01h  1
 181 -1.9130858e-01 2.26e+00 1.69e+03  -6.0 4.06e+02  -7.9 1.00e+00 4.30e-01h  1
 182 -1.9493972e-01 1.91e+00 3.03e+02  -6.0 6.51e+02  -8.4 3.15e-01 4.40e-01h  1
 183 -1.9978611e-01 1.23e+00 3.51e+03  -6.0 2.36e+02  -8.0 5.69e-01 9.48e-01h  1
 184 -2.0530605e-01 4.24e+00 5.39e+03  -6.0 1.60e+03  -8.5 1.86e-01 2.34e-01h  1
 185 -2.0990680e-01 7.88e+00 7.15e+03  -6.0 4.61e+02  -8.0 6.35e-01 4.14e-01h  1
 186 -2.1073838e-01 8.16e+00 1.01e+04  -6.0 1.98e+03  -8.5 1.77e-01 2.73e-02h  1
 187 -2.1194554e-01 5.74e+00 5.52e+04  -6.0 8.20e+02  -8.1 7.25e-02 2.92e-01h  1
 188 -2.1198579e-01 5.28e+00 1.69e+05  -6.0 1.08e+02  -6.8 8.35e-03 8.02e-02h  1
 189 -2.1203530e-01 5.03e+00 1.61e+05  -6.0 6.88e+01  -7.2 5.58e-02 4.76e-02h  1
iter    objective    inf_pr   inf_du lg(mu)  ||d||  lg(rg) alpha_du alpha_pr  ls
 190 -2.1280157e-01 3.72e+00 1.18e+05  -6.0 1.57e+02  -7.7 6.49e-03 2.65e-01f  1
 191 -2.1296850e-01 2.02e+00 6.25e+04  -6.0 3.19e+01  -6.4 4.71e-01 4.72e-01h  1
 192 -2.1312764e-01 1.67e+00 5.11e+04  -6.0 3.88e+01  -6.9 1.40e-02 1.83e-01h  1
 193 -2.1333530e-01 1.46e+00 4.47e+04  -6.0 1.13e+02  -7.3 1.00e+00 1.25e-01h  1
 194 -2.1457828e-01 1.24e+00 3.37e+04  -6.0 3.23e+02  -7.8 1.00e+00 2.47e-01h  1
 195 -2.1532783e-01 1.24e+00 3.20e+04  -6.0 1.04e+03  -8.3 2.48e-01 4.94e-02h  1
 196 -2.1782254e-01 1.05e+01 3.10e+04  -6.0 2.81e+04  -8.8 6.22e-06 3.02e-02h  1
 197 -2.1799859e-01 1.06e+01 3.02e+04  -6.0 5.11e+03  -8.3 3.81e-02 2.58e-02h  1
 198 -2.1918629e-01 9.55e+00 2.71e+04  -6.0 5.52e+02  -7.9 4.35e-02 1.02e-01h  1
 199 -2.2024464e-01 9.09e+00 2.57e+04  -6.0 7.95e+02  -8.4 8.73e-02 5.11e-02h  1
iter    objective    inf_pr   inf_du lg(mu)  ||d||  lg(rg) alpha_du alpha_pr  ls
 200 -2.2173866e-01 8.65e+00 2.43e+04  -6.0 1.59e+03  -8.9 3.61e-02 5.64e-02h  1
 201 -2.2334524e-01 7.96e+00 2.20e+04  -6.0 8.71e+02  -8.4 1.02e-01 9.42e-02h  1
 202 -2.2349162e-01 7.91e+00 2.19e+04  -6.0 1.34e+03  -8.9 2.53e-01 6.36e-03h  1
 203 -2.2382765e-01 7.63e+00 2.10e+04  -6.0 8.82e+02  -8.5 2.46e-02 3.77e-02h  1
 204 -2.2599593e-01 7.20e+00 1.87e+04  -6.0 2.18e+03  -9.0 5.47e-02 1.13e-01h  1
 205 -2.2989580e-01 1.20e+01 1.63e+04  -6.0 9.06e+03  -9.5 3.14e-02 1.27e-01h  1
 206 -2.3100112e-01 1.11e+01 1.50e+04  -6.0 5.54e+03  -9.9 4.20e-04 7.89e-02h  1
 207 -2.3173073e-01 1.02e+01 1.38e+04  -6.0 1.82e+03  -9.5 2.72e-01 7.90e-02h  1
 208 -2.3234701e-01 9.54e+00 1.28e+04  -6.0 6.57e+03 -10.0 1.69e-01 7.36e-02h  1
 209 -2.3287888e-01 9.15e+00 1.23e+04  -6.0 1.02e+04 -10.5 9.97e-02 4.36e-02h  1
iter    objective    inf_pr   inf_du lg(mu)  ||d||  lg(rg) alpha_du alpha_pr  ls
 210 -2.3433017e-01 7.59e+00 9.88e+03  -6.0 4.31e+03 -10.0 1.79e-01 1.94e-01h  1
 211 -2.3547811e-01 1.36e+01 8.22e+03  -6.0 7.18e+03  -9.6 1.64e-01 1.68e-01h  1
 212 -2.3644487e-01 1.44e+01 7.80e+03  -6.0 7.38e+03 -10.1 3.69e-03 5.05e-02h  1
 213 -2.3644832e-01 1.44e+01 7.79e+03  -6.0 3.04e+05 -10.6 1.13e-06 9.44e-04f  3
 214 -2.3701369e-01 1.41e+01 7.14e+03  -6.0 9.33e+02  -9.2 7.17e-02 8.40e-02h  1
 215 -2.3706144e-01 1.39e+01 7.07e+03  -6.0 2.60e+03  -9.7 1.38e-01 9.71e-03h  1
 216 -2.3770604e-01 1.36e+01 6.64e+03  -6.0 1.23e+04 -10.2 1.15e-04 6.15e-02h  1
 217 -2.3785781e-01 1.34e+01 6.53e+03  -6.0 1.19e+04 -10.7 5.74e-02 1.54e-02h  1
 218 -2.4147678e-01 2.78e+01 1.13e+04  -6.0 8.96e+03 -10.2 6.50e-05 4.96e-01h  1
 219 -2.4154060e-01 2.58e+01 9.45e+03  -6.0 3.54e+02  -8.0 7.73e-02 7.05e-02h  1
iter    objective    inf_pr   inf_du lg(mu)  ||d||  lg(rg) alpha_du alpha_pr  ls
 220 -2.4249287e-01 1.85e+01 5.96e+04  -6.0 4.02e+02  -8.5 2.14e-04 2.82e-01h  1
 221 -2.4302500e-01 1.64e+01 5.26e+04  -6.0 5.67e+02  -9.0 1.17e-01 1.16e-01h  1
 222 -2.4509798e-01 1.20e+01 1.42e+05  -6.0 1.97e+03  -9.4 3.43e-02 2.74e-01h  1
 223 -2.4501673e-01 1.18e+01 1.31e+05  -6.0 1.78e+03  -8.1 1.79e-02 2.10e-02h  1
 224 -2.4504356e-01 1.16e+01 1.24e+05  -6.0 2.03e+03  -8.6 5.76e-05 1.60e-02h  1
 225 -2.4501844e-01 1.13e+01 5.64e+04  -6.0 1.63e+03  -8.2 8.56e-03 2.53e-02h  1
 226 -2.4547133e-01 7.58e+00 9.64e+04  -6.0 5.48e+02  -8.6 6.87e-02 3.29e-01h  1
 227 -2.4576280e-01 3.81e+00 3.49e+04  -6.0 1.12e+02  -8.2 1.86e-01 4.98e-01h  1
 228 -2.4615559e-01 3.87e-01 1.09e+04  -6.0 8.31e+01  -7.8 5.48e-02 1.00e+00f  1
 229 -2.4613830e-01 3.51e-01 8.83e+03  -6.0 9.08e+01  -8.3 2.69e-01 9.34e-02h  1
iter    objective    inf_pr   inf_du lg(mu)  ||d||  lg(rg) alpha_du alpha_pr  ls
 230 -2.4638869e-01 1.69e+00 5.80e+03  -6.0 2.37e+02  -8.7 9.54e-02 6.17e-01f  1
 231 -2.4642491e-01 1.65e+00 4.73e+03  -6.0 8.85e+02  -9.2 2.35e-01 2.75e-02h  1
 232 -2.4682078e-01 1.59e+00 4.12e+03  -6.0 4.40e+03  -9.7 1.03e-01 1.41e-01h  1
 233 -2.4683834e-01 1.56e+00 4.06e+03  -6.0 5.48e+03 -10.2 1.67e-03 1.85e-02h  1
 234 -2.4696341e-01 1.31e+00 3.64e+03  -6.0 5.80e+02  -8.8 4.82e-02 1.66e-01h  1
 235 -2.4713642e-01 1.26e+00 3.45e+03  -6.0 1.37e+02  -7.5 5.93e-02 3.43e-02f  1
 236 -2.4714470e-01 1.24e+00 3.41e+03  -6.0 7.91e+02  -8.0 3.33e-03 2.11e-02f  1
 237 -2.4742409e-01 6.85e-01 7.05e+03  -6.0 1.00e+02  -7.6 8.64e-02 6.01e-01h  1
 238 -2.4737899e-01 4.22e-01 4.13e+03  -6.0 3.26e+01  -7.1 4.82e-02 3.91e-01h  1
 239 -2.4728946e-01 1.80e-02 3.22e+03  -6.0 2.56e+01  -7.6 1.23e-02 9.97e-01h  1
iter    objective    inf_pr   inf_du lg(mu)  ||d||  lg(rg) alpha_du alpha_pr  ls
 240 -2.4752229e-01 1.53e-01 1.29e+03  -6.0 7.33e+01  -8.1 4.90e-01 1.00e+00f  1
 241 -2.4782979e-01 4.26e-01 4.51e+02  -6.0 1.93e+02  -8.6 6.42e-01 5.83e-01h  1
 242 -2.4800856e-01 6.01e-01 1.27e+02  -6.0 4.37e+02  -9.0 5.78e-01 2.20e-01h  1
 243 -2.4832232e-01 1.02e+01 1.16e+02  -6.0 1.71e+03  -9.5 2.74e-01 4.58e-01h  1
 244 -2.4853315e-01 2.27e+01 1.17e+02  -6.0 7.36e+03 -10.0 3.91e-02 1.22e-01h  1
 245 -2.4853644e-01 2.24e+01 1.12e+02  -6.0 2.52e+00  -2.2 3.47e-02 1.39e-02h  1
 246 -2.4844602e-01 2.00e+01 1.13e+02  -6.0 2.84e+00  -2.6 3.29e-02 1.08e-01h  1
 247 -2.4836408e-01 1.77e+01 9.81e+01  -6.0 3.86e+00  -3.1 1.25e-01 1.17e-01h  1
 248 -2.4825295e-01 1.35e+01 6.09e+01  -6.0 3.55e+00  -3.6 3.31e-01 2.35e-01h  1
 249 -2.4828498e-01 9.79e+00 6.55e+01  -6.0 2.89e+00  -4.1 5.80e-02 2.77e-01h  1
iter    objective    inf_pr   inf_du lg(mu)  ||d||  lg(rg) alpha_du alpha_pr  ls
 250 -2.4825471e-01 8.53e+00 3.95e+01  -6.0 2.04e+00  -3.6 3.19e-01 1.29e-01h  1
 251 -2.4828334e-01 6.80e+00 4.05e+01  -6.0 5.00e+00  -4.1 5.93e-02 2.03e-01h  1
 252 -2.4833167e-01 6.29e+00 2.40e+01  -6.0 1.02e+01  -4.6 3.04e-01 7.42e-02h  1
 253 -2.4842791e-01 4.91e+00 2.45e+01  -6.0 2.85e+01  -5.1 7.75e-02 2.20e-01h  1
 254 -2.4845213e-01 3.91e+00 1.36e+01  -6.0 1.42e+00  -4.6 7.14e-01 2.04e-01h  1
 255 -2.4841749e-01 2.15e+00 7.50e+00  -6.0 4.40e-01  -3.3 5.11e-01 4.50e-01h  1
 256 -2.4840613e-01 1.39e-04 1.89e+00  -6.0 2.24e-01  -3.8 6.35e-01 1.00e+00h  1
 257 -2.4846718e-01 2.15e-04 5.50e-01  -6.0 3.24e-01  -4.3 1.00e+00 8.91e-01h  1
 258 -2.4858758e-01 6.37e-04 3.13e+00  -6.0 9.17e-01  -4.7 1.00e+00 7.42e-01f  1
 259 -2.4849937e-01 1.84e-04 4.97e-01  -6.0 8.03e-01  -5.2 1.00e+00 1.00e+00h  1
iter    objective    inf_pr   inf_du lg(mu)  ||d||  lg(rg) alpha_du alpha_pr  ls
 260 -2.4850275e-01 1.60e-03 7.05e-01  -6.0 1.16e+00  -5.7 1.00e+00 1.00e+00h  1
 261 -2.4847905e-01 7.42e-04 8.47e-01  -6.0 2.54e+00  -6.2 1.00e+00 1.00e+00h  1
 262 -2.4847606e-01 3.39e-03 2.48e-01  -6.0 7.13e+00  -6.7 1.00e+00 1.00e+00h  1
 263 -2.4848368e-01 4.82e-03 4.92e+00  -6.0 1.65e+01  -7.1 1.00e+00 3.69e-01h  1
 264 -2.4842899e-01 2.64e-02 3.86e+00  -6.0 3.24e+01  -7.6 1.00e+00 1.00e+00f  1
 265 -2.4845357e-01 8.75e-01 9.01e-01  -6.0 6.07e+01  -8.1 1.00e+00 1.00e+00h  1
 266 -2.4852841e-01 2.53e-01 6.45e+00  -6.0 2.35e+02  -8.6 1.85e-01 3.10e-01h  1
 267 -2.4870349e-01 7.81e-01 7.05e-01  -6.0 1.79e+02  -9.0 1.00e+00 1.00e+00h  1
 268 -2.4883635e-01 7.98e-01 1.05e+01  -6.0 2.44e+04  -9.5 3.33e-03 3.63e-03h  1
 269 -2.4903035e-01 1.94e+00 1.43e+02  -6.0 6.29e+02 -10.0 2.08e-01 5.93e-01h  1
iter    objective    inf_pr   inf_du lg(mu)  ||d||  lg(rg) alpha_du alpha_pr  ls
 270 -2.4910114e-01 2.18e+01 1.99e+02  -6.0 2.40e+03 -10.5 3.04e-01 4.46e-01h  1
 271 -2.4913099e-01 2.02e+01 2.20e+02  -6.0 2.41e+03 -10.9 3.91e-01 9.12e-02h  1
 272 -2.4941299e-01 3.24e+01 1.27e+02  -6.0 1.35e+04 -11.4 1.20e-01 1.73e-01h  1
 273 -2.4954527e-01 2.21e+01 2.00e+02  -6.0 5.67e+02 -10.1 9.24e-02 3.18e-01h  1
 274 -2.5007161e-01 9.45e+00 1.02e+03  -6.0 7.72e+02  -9.7 5.36e-01 1.00e+00h  1
 275 -2.5020324e-01 7.19e+00 7.15e+02  -6.0 4.77e+02  -9.2 4.96e-01 2.57e-01h  1
 276 -2.5048739e-01 2.17e+00 2.82e+03  -6.0 2.37e+02  -8.8 1.85e-01 7.38e-01h  1
 277 -2.5091042e-01 3.10e+00 7.14e+03  -6.0 7.17e+02  -9.3 2.44e-01 5.74e-01h  1
 278 -2.5116074e-01 2.26e+00 4.49e+03  -6.0 3.50e+02  -8.9 3.98e-01 4.05e-01h  1
 279 -2.5218239e-01 1.46e+01 4.18e+06  -6.0 1.59e+03  -9.3 2.98e-03 5.11e-01h  1
iter    objective    inf_pr   inf_du lg(mu)  ||d||  lg(rg) alpha_du alpha_pr  ls
 280 -2.5379423e-01 1.43e+01 2.90e+06  -6.0 3.39e+03  -9.8 2.11e-02 3.08e-01h  1
 281 -2.5344074e-01 1.42e+01 2.80e+06  -6.0 4.09e+03  -9.4 4.48e-02 3.44e-02h  3
 282 -2.5345053e-01 1.42e+01 2.79e+06  -6.0 1.10e+03  -9.0 4.21e-01 2.08e-03h  1
 283 -2.5448588e-01 1.66e+01 2.21e+06  -6.0 2.38e+03  -9.4 5.21e-01 2.08e-01h  1
 284 -2.5497673e-01 1.51e+01 1.90e+06  -6.0 1.30e+03  -9.9 2.60e-02 1.38e-01h  1
 285 -2.5643075e-01 2.90e+01 1.34e+06  -6.0 3.02e+03 -10.4 3.00e-02 2.98e-01h  1
 286 -2.5647873e-01 2.86e+01 1.32e+06  -6.0 3.59e+03  -9.1 4.88e-02 1.40e-02h  1
 287 -2.5708088e-01 3.49e+00 1.61e+05  -6.0 3.35e+02  -9.6 9.36e-02 8.78e-01h  1
 288 -2.5771468e-01 2.75e+00 1.27e+05  -6.0 2.61e+03 -10.0 1.00e+00 2.11e-01h  1
 289 -2.5790639e-01 2.54e+00 1.17e+05  -6.0 2.25e+03 -10.5 1.00e+00 7.94e-02h  1
iter    objective    inf_pr   inf_du lg(mu)  ||d||  lg(rg) alpha_du alpha_pr  ls
 290 -2.5832901e-01 3.83e+01 9.10e+04  -6.0 7.84e+03    -  3.79e-01 2.21e-01h  1
 291 -2.5853772e-01 3.08e+01 7.31e+04  -6.0 1.03e+03 -10.1 3.88e-02 1.97e-01h  1
 292 -2.5917923e-01 2.46e+00 1.98e+02  -6.0 6.54e+02  -9.7 1.88e-01 1.00e+00h  1
 293 -2.5936394e-01 5.85e-01 4.03e+01  -6.0 3.93e+02 -10.1 3.85e-01 7.86e-01h  1
 294 -2.5936929e-01 2.52e+00 3.20e-01  -6.0 3.05e+02  -8.8 1.00e+00 1.00e+00f  1
 295 -2.5936807e-01 2.33e+00 1.07e+02  -6.0 3.12e+03    -  5.70e-01 7.48e-02h  2
 296 -2.5930858e-01 2.95e+00 5.41e+01  -6.0 1.68e+03    -  3.32e-01 1.00e+00h  1
 297 -2.5929768e-01 4.04e-03 1.55e-02  -6.0 1.29e+01  -8.4 1.00e+00 1.00e+00h  1
 298 -2.5930205e-01 9.10e-03 2.43e-03  -6.0 2.04e+01  -8.9 1.00e+00 1.00e+00h  1
 299 -2.5930334e-01 6.81e-02 1.56e-02  -6.0 5.91e+01  -9.3 1.00e+00 1.00e+00h  1
iter    objective    inf_pr   inf_du lg(mu)  ||d||  lg(rg) alpha_du alpha_pr  ls
 300 -2.5930232e-01 4.20e-01 1.01e-01  -6.0 1.57e+02  -9.8 1.00e+00 1.00e+00h  1
 301 -2.5929901e-01 1.43e-01 3.63e-03  -6.0 4.93e+01  -9.4 1.00e+00 1.00e+00h  1
 302 -2.5929834e-01 3.09e-01 3.64e+00  -6.0 2.59e+02  -9.9 1.00e+00 2.44e-01h  2
 303 -2.5929608e-01 3.41e-01 5.88e+00  -6.0 4.33e+02 -10.3 1.00e+00 2.92e-01h  2
 304 -2.5929502e-01 8.05e-01 6.17e+01  -6.0 3.67e+03    -  8.81e-01 6.19e-02h  2
 305 -2.5927605e-01 3.79e+00 3.17e-01  -6.0 5.67e+02    -  1.00e+00 1.00e+00h  1
 306 -2.5927620e-01 3.64e+00 4.25e-01  -6.0 6.34e+02    -  1.07e-01 4.35e-02h  2
 307 -2.5927791e-01 2.69e-02 6.68e-03  -6.0 4.47e+01    -  1.00e+00 1.00e+00h  1
 308 -2.5927801e-01 2.72e-02 1.44e-03  -6.0 4.86e+01    -  1.00e+00 1.00e+00h  1
 309 -2.5927796e-01 4.54e-03 2.01e-04  -6.0 1.98e+01    -  1.00e+00 1.00e+00h  1
iter    objective    inf_pr   inf_du lg(mu)  ||d||  lg(rg) alpha_du alpha_pr  ls
 310 -2.5927796e-01 1.62e-06 8.10e-08  -6.0 3.70e-01    -  1.00e+00 1.00e+00h  1
 311 -2.5986016e-01 2.12e+00 2.67e+01  -7.5 2.78e+03    -  3.63e-01 2.71e-01h  1
 312 -2.6006202e-01 2.44e+00 9.99e+01  -7.5 2.66e+03    -  5.33e-01 1.80e-01h  1
 313 -2.6006659e-01 2.42e+00 1.02e+02  -7.5 2.65e+02  -9.0 1.54e-01 5.80e-03h  1
 314 -2.6037752e-01 3.91e+00 6.43e+01  -7.5 2.80e+03    -  1.04e-01 3.14e-01h  1
 315 -2.6037821e-01 3.90e+00 1.59e+02  -7.5 2.07e+02  -9.5 4.09e-01 1.49e-03h  1
 316 -2.6061641e-01 4.10e+00 7.47e+01  -7.5 2.42e+03    -  2.68e-01 3.93e-01h  1
 317 -2.6061828e-01 4.07e+00 1.91e+02  -7.5 2.13e+02 -10.0 8.22e-01 7.45e-03h  1
 318 -2.6080817e-01 1.31e+00 5.25e+01  -7.5 4.51e+02 -10.4 1.00e+00 7.55e-01h  1
 319 -2.6085228e-01 3.82e+00 2.21e+01  -7.5 1.18e+03    -  2.86e-01 5.83e-01h  1
iter    objective    inf_pr   inf_du lg(mu)  ||d||  lg(rg) alpha_du alpha_pr  ls
 320 -2.6085961e-01 2.19e+00 1.29e+01  -7.5 3.19e+02 -10.9 3.59e-01 4.20e-01h  1
 321 -2.6084507e-01 1.94e+00 3.59e+00  -7.5 7.93e+02 -11.4 3.31e-02 1.00e+00H  1
 322 -2.6086963e-01 6.78e+00 3.98e+00  -7.5 1.75e+03 -11.9 1.00e+00 3.72e-01h  1
 323 -2.6087074e-01 7.04e+00 3.48e+00  -7.5 1.22e+03 -12.3 7.22e-04 2.90e-01h  1
 324 -2.6086437e-01 1.88e+00 1.78e-01  -7.5 4.32e+02 -12.8 9.41e-01 9.28e-01h  1
 325 -2.6086392e-01 4.34e-01 1.51e-02  -7.5 1.92e+02    -  1.00e+00 1.00e+00h  1
 326 -2.6086384e-01 1.61e-03 6.45e-05  -7.5 1.13e+01    -  1.00e+00 1.00e+00h  1
 327 -2.6086384e-01 7.35e-06 8.64e-09  -7.5 7.95e-01    -  1.00e+00 1.00e+00h  1
 328 -2.6086384e-01 2.58e-10 4.43e-13  -7.5 1.94e-03    -  1.00e+00 1.00e+00h  1
 329 -2.6086532e-01 3.54e-01 1.27e+01  -9.0 8.81e+02    -  7.49e-01 1.98e-01h  1
iter    objective    inf_pr   inf_du lg(mu)  ||d||  lg(rg) alpha_du alpha_pr  ls
 330 -2.6086757e-01 1.11e+01 1.87e+00  -9.0 1.11e+03 -12.4 3.08e-01 8.81e-01h  1
 331 -2.6086748e-01 5.33e+00 8.96e-01  -9.0 6.41e+02 -12.9 5.34e-01 5.44e-01h  1
 332 -2.6086748e-01 5.16e+00 6.48e-01  -9.0 2.59e+03 -13.4 1.45e-01 3.12e-02h  6
 333 -2.6086785e-01 5.66e+01 1.05e+00  -9.0 7.31e+03 -13.8 2.66e-02 4.46e-01H  1
 334 -2.6086826e-01 1.70e+01 7.55e-01  -9.0 1.09e+03 -12.5 5.31e-01 1.00e+00h  1
 335 -2.6086908e-01 7.80e+01 5.16e-01  -9.0 5.70e+03 -13.0 3.17e-01 3.92e-01h  1
 336 -2.6086907e-01 7.39e+01 5.41e-01  -9.0 6.86e+02 -11.6 2.06e-01 5.29e-02h  1
 337 -2.6086921e-01 6.44e+00 1.14e+01  -9.0 5.07e+02 -12.1 3.18e-02 1.00e+00h  1
 338 -2.6086937e-01 7.03e+00 4.31e-04  -9.0 7.56e+02 -12.6 1.00e+00 1.00e+00h  1
 339 -2.6087045e-01 7.09e+01 3.21e-02  -9.0 4.57e+03 -12.2 4.28e-02 4.83e-01h  1
iter    objective    inf_pr   inf_du lg(mu)  ||d||  lg(rg) alpha_du alpha_pr  ls
 340 -2.6087146e-01 2.51e+01 6.76e-01  -9.0 1.18e+03 -12.7 5.47e-01 1.00e+00h  1
 341 -2.6087239e-01 4.85e+01 4.70e-01  -9.0 6.40e+03 -13.1 2.23e-01 2.01e-01h  1
 342 -2.6087360e-01 5.12e+01 3.18e-01  -9.0 1.64e+03 -12.7 1.46e-01 1.00e+00h  1
 343 -2.6087466e-01 5.97e+01 9.12e+00  -9.0 7.81e+03 -13.2 2.11e-02 4.88e-01H  1
 344 -2.6087458e-01 5.88e+01 8.17e+00  -9.0 7.94e+03 -11.9 1.14e-01 2.59e-02h  4
 345 -2.6087542e-01 5.13e+01 1.82e+00  -9.0 1.77e+03 -12.3 1.56e-01 1.00e+00h  1
 346 -2.6087568e-01 4.54e+01 1.24e+00  -9.0 5.26e+03 -12.8 3.55e-01 1.29e-01h  2
 347 -2.6087599e-01 3.21e+01 5.60e-01  -9.0 1.20e+03 -12.4 7.05e-01 3.71e-01h  1
 348 -2.6087600e-01 1.87e+01 2.73e-01  -9.0 1.47e+03 -12.9 6.41e-01 5.00e-01h  2
 349 -2.6087616e-01 5.25e+00 3.06e-03  -9.0 6.24e+02 -12.4 1.00e+00 1.00e+00h  1
iter    objective    inf_pr   inf_du lg(mu)  ||d||  lg(rg) alpha_du alpha_pr  ls
 350 -2.6087628e-01 1.31e+00 1.09e-03  -9.0 3.06e+02 -12.0 1.00e+00 1.00e+00h  1
 351 -2.6087686e-01 3.51e+01 6.67e-03  -9.0 1.61e+03 -12.5 1.00e+00 1.00e+00h  1
 352 -2.6087744e-01 4.63e+01 4.15e-02  -9.0 7.34e+03    -  2.58e-02 4.32e-01H  1
Error in an AMPL evaluation. Run with "halt_on_ampl_error yes" to see details.
Warning: Cutting back alpha due to evaluation error
 353 -2.6087738e-01 4.40e+01 4.28e+00  -9.0 3.40e+03 -12.1 1.89e-01 1.18e-01h  3
 354 -2.6087902e-01 4.97e+01 3.73e+00  -9.0 2.81e+03 -12.5 3.45e-01 6.01e-01h  1
 355 -2.6088041e-01 2.35e+01 4.13e+00  -9.0 1.04e+03    -  4.70e-01 1.00e+00h  1
 356 -2.6088157e-01 4.59e+01 3.58e+00  -9.0 1.08e+04 -13.0 1.39e-01 1.16e-01h  1
 357 -2.6088132e-01 1.05e+01 4.30e+00  -9.0 6.69e+02    -  2.14e-02 1.00e+00h  1
 358 -2.6088202e-01 9.72e+00 3.48e+00  -9.0 7.38e+02    -  1.32e-01 1.00e+00h  1
 359 -2.6088302e-01 5.31e+01 3.19e+00  -9.0 4.46e+03    -  1.88e-01 3.65e-01h  1
iter    objective    inf_pr   inf_du lg(mu)  ||d||  lg(rg) alpha_du alpha_pr  ls
 360 -2.6088292e-01 4.74e+01 3.18e+00  -9.0 1.89e+03    -  8.60e-01 1.27e-01h  1
 361 -2.6088258e-01 1.21e+01 2.04e+01  -9.0 7.77e+02    -  1.16e-01 1.00e+00h  1
 362 -2.6088281e-01 6.32e+00 6.72e-01  -9.0 5.76e+02    -  4.75e-01 1.00e+00h  1
 363 -2.6088273e-01 2.97e-01 6.55e-01  -9.0 8.98e+01    -  1.86e-01 1.00e+00h  1
 364 -2.6088277e-01 3.18e-01 4.40e-05  -9.0 6.61e+01 -10.8 1.00e+00 1.00e+00h  1
 365 -2.6088342e-01 2.93e+01 1.28e-02  -9.0 3.03e+03    -  9.91e-02 4.12e-01h  1
 366 -2.6088324e-01 1.49e+01 4.01e-02  -9.0 1.21e+03    -  2.50e-01 5.00e-01h  2
 367 -2.6088346e-01 1.91e+01 2.37e-02  -9.0 1.64e+03    -  7.31e-01 4.44e-01h  1
 368 -2.6088337e-01 3.93e-01 1.12e-03  -9.0 1.37e+02    -  1.00e+00 1.00e+00h  1
 369 -2.6088333e-01 1.06e-01 2.56e-05  -9.0 7.11e+01    -  1.00e+00 1.00e+00h  1
iter    objective    inf_pr   inf_du lg(mu)  ||d||  lg(rg) alpha_du alpha_pr  ls
 370 -2.6088333e-01 2.45e-04 4.37e-07  -9.0 3.31e+00    -  1.00e+00 1.00e+00h  1
 371 -2.6088333e-01 8.11e-10 4.11e-13  -9.0 6.29e-03    -  1.00e+00 1.00e+00h  1

Number of Iterations....: 371

                                   (scaled)                 (unscaled)
Objective...............:  -2.6088333380372963e-01   -2.6088333380372963e-01
Dual infeasibility......:   4.1128503149225256e-13    4.1128503149225256e-13
Constraint violation....:   4.3654171124307016e-10    8.1126927398145199e-10
Complementarity.........:   9.0909091497609267e-10    9.0909091497609267e-10
Overall NLP error.......:   9.0909091497609267e-10    9.0909091497609267e-10


Number of objective function evaluations             = 1044
Number of objective gradient evaluations             = 372
Number of equality constraint evaluations            = 1045
Number of inequality constraint evaluations          = 1045
Number of equality constraint Jacobian evaluations   = 373
Number of inequality constraint Jacobian evaluations = 373
Number of Lagrangian Hessian evaluations             = 371
Total CPU secs in IPOPT (w/o function evaluations)   =    944.591
Total CPU secs in NLP function evaluations           =     17.599

EXIT: Optimal Solution Found.
